
Gurobi 13.0.2 (win64) logging started Thu Jul 23 04:16:04 2026

Set parameter LogFile to value "E:\codes\ExactEBRP\results\gf_cplex_equivalent_gurobi_replica_round28\runs\stage0_sentinel__moderate_seed4301__c3_replica__120s\external\native_logs\R.0.0_lp.gurobi.log"
Gurobi Optimizer version 13.0.2 build v13.0.2rc1 (win64 - Windows 10.0 (19045.2))

CPU model: 12th Gen Intel(R) Core(TM) i7-12700KF, instruction set [SSE2|AVX|AVX2]
Thread count: 12 physical cores, 20 logical processors, using up to 1 threads

Non-default parameters:
TimeLimit  81.2317101
MIPGap  0
MIPGapAbs  0
LogToConsole  0
Threads  1

Optimize a model with 11911 rows, 3376 columns and 67111 nonzeros (Min)
Model fingerprint: 0xa8a41409
Model has 21 linear objective coefficients
Coefficient statistics:
  Matrix range     [5e-03, 2e+04]
  Objective range  [8e-03, 1e+00]
  Bounds range     [5e-03, 5e+01]
  RHS range        [5e-03, 5e+04]

Presolve removed 793 rows and 115 columns
Presolve time: 0.04s
Presolved: 11118 rows, 3433 columns, 64522 nonzeros

Iteration    Objective       Primal Inf.    Dual Inf.      Time
       0    0.0000000e+00   9.760622e+01   0.000000e+00      0s

Extra simplex iterations after uncrush: 1
    2133    3.2094001e-03   0.000000e+00   0.000000e+00      0s

Solved in 2133 iterations and 0.16 seconds (0.47 work units)
Optimal objective  3.209400143e-03

User-callback calls 2283, time in user-callback 0.00 sec
